2018 Public Transportation Networks/Problem10/Exercise3/Exercise3b/3b.lp
Minimize
f1 + f2 + f3 + f4 + f5 + f6 + f7 + f8 + f9 + f10 + f11 + f12 + f13 + f14

Subject To
xAB_AD1 + xAF_AD1 + xDC_AD1 + xDF_AD1 + xGB_AD1 + xCA_AD1 - 50f1 <= 0
xAB_AE2 + xAF_AE2 + xDC_AE2 + xDF_AE2 + xGB_AE2 + xCA_AE2 - 50f2 <= 0
xAB_EB2 + xAF_EB2 + xDC_EB2 + xDF_EB2 + xGB_EB2 + xCA_EB2 - 50f2 <= 0
xAB_AE3 + xAF_AE3 + xDC_AE3 + xDF_AE3 + xGB_AE3 + xCA_AE3 - 50f3 <= 0
xAB_EF3 + xAF_EF3 + xDC_EF3 + xDF_EF3 + xGB_EF3 + xCA_EF3 - 50f3 <= 0
xAB_DG4 + xAF_DG4 + xDC_DG4 + xDF_DG4 + xGB_DG4 + xCA_DG4 - 50f4 <= 0
xAB_GC4 + xAF_GC4 + xDC_GC4 + xDF_GC4 + xGB_GC4 + xCA_GC4 - 50f4 <= 0
xAB_GE5 + xAF_GE5 + xDC_GE5 + xDF_GE5 + xGB_GE5 + xCA_GE5 - 50f5 <= 0
xAB_EB5 + xAF_EB5 + xDC_EB5 + xDF_EB5 + xGB_EB5 + xCA_EB5 - 50f5 <= 0
xAB_BF5 + xAF_BF5 + xDC_BF5 + xDF_BF5 + xGB_BF5 + xCA_BF5 - 50f5 <= 0
xAB_BC6 + xAF_BC6 + xDC_BC6 + xDF_BC6 + xGB_BC6 + xCA_BC6 - 50f6 <= 0
xAB_CG6 + xAF_CG6 + xDC_CG6 + xDF_CG6 + xGB_CG6 + xCA_CG6 - 50f6 <= 0
xAB_GF6 + xAF_GF6 + xDC_GF6 + xDF_GF6 + xGB_GF6 + xCA_GF6 - 50f6 <= 0
xAB_DG7 + xAF_DG7 + xDC_DG7 + xDF_DG7 + xGB_DG7 + xCA_DG7 - 50f7 <= 0
xAB_GF7 + xAF_GF7 + xDC_GF7 + xDF_GF7 + xGB_GF7 + xCA_GF7 - 50f7 <= 0
xAB_DA8 + xAF_DA8 + xDC_DA8 + xDF_DA8 + xGB_DA8 + xCA_DA8 - 50f8 <= 0
xAB_BE9 + xAF_BE9 + xDC_BE9 + xDF_BE9 + xGB_BE9 + xCA_BE9 - 50f9 <= 0
xAB_EA9 + xAF_EA9 + xDC_EA9 + xDF_EA9 + xGB_EA9 + xCA_EA9 - 50f9 <= 0
xAB_FE10 + xAF_FE10 + xDC_FE10 + xDF_FE10 + xGB_FE10 + xCA_FE10 - 50f10 <= 0
xAB_EA10 + xAF_EA10 + xDC_EA10 + xDF_EA10 + xGB_EA10 + xCA_EA10 - 50f10 <= 0
xAB_CG11 + xAF_CG11 + xDC_CG11 + xDF_CG11 + xGB_CG11 + xCA_CG11 - 50f11 <= 0
xAB_GD11 + xAF_GD11 + xDC_GD11 + xDF_GD11 + xGB_GD11 + xCA_GD11 - 50f11 <= 0
xAB_FB12 + xAF_FB12 + xDC_FB12 + xDF_FB12 + xGB_FB12 + xCA_FB12 - 50f12 <= 0
xAB_BE12 + xAF_BE12 + xDC_BE12 + xDF_BE12 + xGB_BE12 + xCA_BE12 - 50f12 <= 0
xAB_EG12 + xAF_EG12 + xDC_EG12 + xDF_EG12 + xGB_EG12 + xCA_EG12 - 50f12 <= 0
xAB_FG13 + xAF_FG13 + xDC_FG13 + xDF_FG13 + xGB_FG13 + xCA_FG13 - 50f13 <= 0
xAB_GC13 + xAF_GC13 + xDC_GC13 + xDF_GC13 + xGB_GC13 + xCA_GC13 - 50f13 <= 0
xAB_CB13 + xAF_CB13 + xDC_CB13 + xDF_CB13 + xGB_CB13 + xCA_CB13 - 50f13 <= 0
xAB_FG14 + xAF_FG14 + xDC_FG14 + xDF_FG14 + xGB_FG14 + xCA_FG14 - 50f14 <= 0
xAB_GD14 + xAF_GD14 + xDC_GD14 + xDF_GD14 + xGB_GD14 + xCA_GD14 - 50f14 <= 0
 - xAB_AD1 - xAB_AE2 - xAB_AE3 + xAB_DA8 + xAB_EA9 + xAB_EA10 =  - 50
 + xAB_EB2 + xAB_EB5 - xAB_BF5 - xAB_BC6 - xAB_BE9 + xAB_FB12 - xAB_BE12 + xAB_CB13 = 50
 + xAB_GC4 + xAB_BC6 - xAB_CG6 - xAB_CG11 + xAB_GC13 - xAB_CB13 = 0
 + xAB_AD1 - xAB_DG4 - xAB_DG7 - xAB_DA8 + xAB_GD11 + xAB_GD14 = 0
 + xAB_AE2 - xAB_EB2 + xAB_AE3 - xAB_EF3 + xAB_GE5 - xAB_EB5 + xAB_BE9 - xAB_EA9 + xAB_FE10 - xAB_EA10 + xAB_BE12 - xAB_EG12 = 0
 + xAB_EF3 + xAB_BF5 + xAB_GF6 + xAB_GF7 - xAB_FE10 - xAB_FB12 - xAB_FG13 - xAB_FG14 = 0
 + xAB_DG4 - xAB_GC4 - xAB_GE5 + xAB_CG6 - xAB_GF6 + xAB_DG7 - xAB_GF7 + xAB_CG11 - xAB_GD11 + xAB_EG12 + xAB_FG13 - xAB_GC13 + xAB_FG14 - xAB_GD14 = 0
 - xAF_AD1 - xAF_AE2 - xAF_AE3 + xAF_DA8 + xAF_EA9 + xAF_EA10 =  - 50
 + xAF_EB2 + xAF_EB5 - xAF_BF5 - xAF_BC6 - xAF_BE9 + xAF_FB12 - xAF_BE12 + xAF_CB13 = 0
 + xAF_GC4 + xAF_BC6 - xAF_CG6 - xAF_CG11 + xAF_GC13 - xAF_CB13 = 0
 + xAF_AD1 - xAF_DG4 - xAF_DG7 - xAF_DA8 + xAF_GD11 + xAF_GD14 = 0
 + xAF_AE2 - xAF_EB2 + xAF_AE3 - xAF_EF3 + xAF_GE5 - xAF_EB5 + xAF_BE9 - xAF_EA9 + xAF_FE10 - xAF_EA10 + xAF_BE12 - xAF_EG12 = 0
 + xAF_EF3 + xAF_BF5 + xAF_GF6 + xAF_GF7 - xAF_FE10 - xAF_FB12 - xAF_FG13 - xAF_FG14 = 50
 + xAF_DG4 - xAF_GC4 - xAF_GE5 + xAF_CG6 - xAF_GF6 + xAF_DG7 - xAF_GF7 + xAF_CG11 - xAF_GD11 + xAF_EG12 + xAF_FG13 - xAF_GC13 + xAF_FG14 - xAF_GD14 = 0
 - xDC_AD1 - xDC_AE2 - xDC_AE3 + xDC_DA8 + xDC_EA9 + xDC_EA10 = 0
 + xDC_EB2 + xDC_EB5 - xDC_BF5 - xDC_BC6 - xDC_BE9 + xDC_FB12 - xDC_BE12 + xDC_CB13 = 0
 + xDC_GC4 + xDC_BC6 - xDC_CG6 - xDC_CG11 + xDC_GC13 - xDC_CB13 = 80
 + xDC_AD1 - xDC_DG4 - xDC_DG7 - xDC_DA8 + xDC_GD11 + xDC_GD14 =  - 80
 + xDC_AE2 - xDC_EB2 + xDC_AE3 - xDC_EF3 + xDC_GE5 - xDC_EB5 + xDC_BE9 - xDC_EA9 + xDC_FE10 - xDC_EA10 + xDC_BE12 - xDC_EG12 = 0
 + xDC_EF3 + xDC_BF5 + xDC_GF6 + xDC_GF7 - xDC_FE10 - xDC_FB12 - xDC_FG13 - xDC_FG14 = 0
 + xDC_DG4 - xDC_GC4 - xDC_GE5 + xDC_CG6 - xDC_GF6 + xDC_DG7 - xDC_GF7 + xDC_CG11 - xDC_GD11 + xDC_EG12 + xDC_FG13 - xDC_GC13 + xDC_FG14 - xDC_GD14 = 0
 - xDF_AD1 - xDF_AE2 - xDF_AE3 + xDF_DA8 + xDF_EA9 + xDF_EA10 = 0
 + xDF_EB2 + xDF_EB5 - xDF_BF5 - xDF_BC6 - xDF_BE9 + xDF_FB12 - xDF_BE12 + xDF_CB13 = 0
 + xDF_GC4 + xDF_BC6 - xDF_CG6 - xDF_CG11 + xDF_GC13 - xDF_CB13 = 0
 + xDF_AD1 - xDF_DG4 - xDF_DG7 - xDF_DA8 + xDF_GD11 + xDF_GD14 =  - 20
 + xDF_AE2 - xDF_EB2 + xDF_AE3 - xDF_EF3 + xDF_GE5 - xDF_EB5 + xDF_BE9 - xDF_EA9 + xDF_FE10 - xDF_EA10 + xDF_BE12 - xDF_EG12 = 0
 + xDF_EF3 + xDF_BF5 + xDF_GF6 + xDF_GF7 - xDF_FE10 - xDF_FB12 - xDF_FG13 - xDF_FG14 = 20
 + xDF_DG4 - xDF_GC4 - xDF_GE5 + xDF_CG6 - xDF_GF6 + xDF_DG7 - xDF_GF7 + xDF_CG11 - xDF_GD11 + xDF_EG12 + xDF_FG13 - xDF_GC13 + xDF_FG14 - xDF_GD14 = 0
 - xGB_AD1 - xGB_AE2 - xGB_AE3 + xGB_DA8 + xGB_EA9 + xGB_EA10 = 0
 + xGB_EB2 + xGB_EB5 - xGB_BF5 - xGB_BC6 - xGB_BE9 + xGB_FB12 - xGB_BE12 + xGB_CB13 = 40
 + xGB_GC4 + xGB_BC6 - xGB_CG6 - xGB_CG11 + xGB_GC13 - xGB_CB13 = 0
 + xGB_AD1 - xGB_DG4 - xGB_DG7 - xGB_DA8 + xGB_GD11 + xGB_GD14 = 0
 + xGB_AE2 - xGB_EB2 + xGB_AE3 - xGB_EF3 + xGB_GE5 - xGB_EB5 + xGB_BE9 - xGB_EA9 + xGB_FE10 - xGB_EA10 + xGB_BE12 - xGB_EG12 = 0
 + xGB_EF3 + xGB_BF5 + xGB_GF6 + xGB_GF7 - xGB_FE10 - xGB_FB12 - xGB_FG13 - xGB_FG14 = 0
 + xGB_DG4 - xGB_GC4 - xGB_GE5 + xGB_CG6 - xGB_GF6 + xGB_DG7 - xGB_GF7 + xGB_CG11 - xGB_GD11 + xGB_EG12 + xGB_FG13 - xGB_GC13 + xGB_FG14 - xGB_GD14 =  - 40
 - xCA_AD1 - xCA_AE2 - xCA_AE3 + xCA_DA8 + xCA_EA9 + xCA_EA10 = 30
 + xCA_EB2 + xCA_EB5 - xCA_BF5 - xCA_BC6 - xCA_BE9 + xCA_FB12 - xCA_BE12 + xCA_CB13 = 0
 + xCA_GC4 + xCA_BC6 - xCA_CG6 - xCA_CG11 + xCA_GC13 - xCA_CB13 =  - 30
 + xCA_AD1 - xCA_DG4 - xCA_DG7 - xCA_DA8 + xCA_GD11 + xCA_GD14 = 0
 + xCA_AE2 - xCA_EB2 + xCA_AE3 - xCA_EF3 + xCA_GE5 - xCA_EB5 + xCA_BE9 - xCA_EA9 + xCA_FE10 - xCA_EA10 + xCA_BE12 - xCA_EG12 = 0
 + xCA_EF3 + xCA_BF5 + xCA_GF6 + xCA_GF7 - xCA_FE10 - xCA_FB12 - xCA_FG13 - xCA_FG14 = 0
 + xCA_DG4 - xCA_GC4 - xCA_GE5 + xCA_CG6 - xCA_GF6 + xCA_DG7 - xCA_GF7 + xCA_CG11 - xCA_GD11 + xCA_EG12 + xCA_FG13 - xCA_GC13 + xCA_FG14 - xCA_GD14 = 0

Bounds
0 <= f1 <= 2
0 <= f2 <= 2
0 <= f3 <= 2
0 <= f4 <= 2
0 <= f5 <= 2
0 <= f6 <= 2
0 <= f7 <= 2
0 <= f8 <= 2
0 <= f9 <= 2
0 <= f10 <= 2
0 <= f11 <= 2
0 <= f12 <= 2
0 <= f13 <= 2
xAB_AD1 >= 0
xAB_AE2 >= 0
xAB_EB2 >= 0
xAB_AE3 >= 0
xAB_EF3 >= 0
xAB_DG4 >= 0
xAB_GC4 >= 0
xAB_GE5 >= 0
xAB_EB5 >= 0
xAB_BF5 >= 0
xAB_BC6 >= 0
xAB_CG6 >= 0
xAB_GF6 >= 0
xAB_DG7 >= 0
xAB_GF7 >= 0
xAB_DA8 >= 0
xAB_BE9 >= 0
xAB_EA9 >= 0
xAB_FE10 >= 0
xAB_EA10 >= 0
xAB_CG11 >= 0
xAB_GD11 >= 0
xAB_FB12 >= 0
xAB_BE12 >= 0
xAB_EG12 >= 0
xAB_FG13 >= 0
xAB_GC13 >= 0
xAB_CB13 >= 0
xAB_FG14 >= 0
xAB_GD14 >= 0
xAF_AD1 >= 0
xAF_AE2 >= 0
xAF_EB2 >= 0
xAF_AE3 >= 0
xAF_EF3 >= 0
xAF_DG4 >= 0
xAF_GC4 >= 0
xAF_GE5 >= 0
xAF_EB5 >= 0
xAF_BF5 >= 0
xAF_BC6 >= 0
xAF_CG6 >= 0
xAF_GF6 >= 0
xAF_DG7 >= 0
xAF_GF7 >= 0
xAF_DA8 >= 0
xAF_BE9 >= 0
xAF_EA9 >= 0
xAF_FE10 >= 0
xAF_EA10 >= 0
xAF_CG11 >= 0
xAF_GD11 >= 0
xAF_FB12 >= 0
xAF_BE12 >= 0
xAF_EG12 >= 0
xAF_FG13 >= 0
xAF_GC13 >= 0
xAF_CB13 >= 0
xAF_FG14 >= 0
xAF_GD14 >= 0
xDC_AD1 >= 0
xDC_AE2 >= 0
xDC_EB2 >= 0
xDC_AE3 >= 0
xDC_EF3 >= 0
xDC_DG4 >= 0
xDC_GC4 >= 0
xDC_GE5 >= 0
xDC_EB5 >= 0
xDC_BF5 >= 0
xDC_BC6 >= 0
xDC_CG6 >= 0
xDC_GF6 >= 0
xDC_DG7 >= 0
xDC_GF7 >= 0
xDC_DA8 >= 0
xDC_BE9 >= 0
xDC_EA9 >= 0
xDC_FE10 >= 0
xDC_EA10 >= 0
xDC_CG11 >= 0
xDC_GD11 >= 0
xDC_FB12 >= 0
xDC_BE12 >= 0
xDC_EG12 >= 0
xDC_FG13 >= 0
xDC_GC13 >= 0
xDC_CB13 >= 0
xDC_FG14 >= 0
xDC_GD14 >= 0
xDF_AD1 >= 0
xDF_AE2 >= 0
xDF_EB2 >= 0
xDF_AE3 >= 0
xDF_EF3 >= 0
xDF_DG4 >= 0
xDF_GC4 >= 0
xDF_GE5 >= 0
xDF_EB5 >= 0
xDF_BF5 >= 0
xDF_BC6 >= 0
xDF_CG6 >= 0
xDF_GF6 >= 0
xDF_DG7 >= 0
xDF_GF7 >= 0
xDF_DA8 >= 0
xDF_BE9 >= 0
xDF_EA9 >= 0
xDF_FE10 >= 0
xDF_EA10 >= 0
xDF_CG11 >= 0
xDF_GD11 >= 0
xDF_FB12 >= 0
xDF_BE12 >= 0
xDF_EG12 >= 0
xDF_FG13 >= 0
xDF_GC13 >= 0
xDF_CB13 >= 0
xDF_FG14 >= 0
xDF_GD14 >= 0
xGB_AD1 >= 0
xGB_AE2 >= 0
xGB_EB2 >= 0
xGB_AE3 >= 0
xGB_EF3 >= 0
xGB_DG4 >= 0
xGB_GC4 >= 0
xGB_GE5 >= 0
xGB_EB5 >= 0
xGB_BF5 >= 0
xGB_BC6 >= 0
xGB_CG6 >= 0
xGB_GF6 >= 0
xGB_DG7 >= 0
xGB_GF7 >= 0
xGB_DA8 >= 0
xGB_BE9 >= 0
xGB_EA9 >= 0
xGB_FE10 >= 0
xGB_EA10 >= 0
xGB_CG11 >= 0
xGB_GD11 >= 0
xGB_FB12 >= 0
xGB_BE12 >= 0
xGB_EG12 >= 0
xGB_FG13 >= 0
xGB_GC13 >= 0
xGB_CB13 >= 0
xGB_FG14 >= 0
xGB_GD14 >= 0
xCA_AD1 >= 0
xCA_AE2 >= 0
xCA_EB2 >= 0
xCA_AE3 >= 0
xCA_EF3 >= 0
xCA_DG4 >= 0
xCA_GC4 >= 0
xCA_GE5 >= 0
xCA_EB5 >= 0
xCA_BF5 >= 0
xCA_BC6 >= 0
xCA_CG6 >= 0
xCA_GF6 >= 0
xCA_DG7 >= 0
xCA_GF7 >= 0
xCA_DA8 >= 0
xCA_BE9 >= 0
xCA_EA9 >= 0
xCA_FE10 >= 0
xCA_EA10 >= 0
xCA_CG11 >= 0
xCA_GD11 >= 0
xCA_FB12 >= 0
xCA_BE12 >= 0
xCA_EG12 >= 0
xCA_FG13 >= 0
xCA_GC13 >= 0
xCA_CB13 >= 0
xCA_FG14 >= 0
xCA_GD14 >= 0

General
f1
f2
f3
f4
f5
f6
f7
f8
f9
f10
f11
f12
f13
f14

End