2018 Public Transportation Networks/Problem10/Exercise3/Exercise3b/3b.sol
solution status: optimal solution found
objective value:                                    7
f2                                                  1 	(obj:1)
f3                                                  1 	(obj:1)
f4                                                  1 	(obj:1)
f7                                                  1 	(obj:1)
f9                                                  1 	(obj:1)
f13                                                 2 	(obj:1)
xAF_AE2                                            50 	(obj:0)
xAB_EB2                                            50 	(obj:0)
xAB_AE3                                            50 	(obj:0)
xAF_EF3                                            50 	(obj:0)
xDC_DG4                                            30 	(obj:0)
xDF_DG4                                            20 	(obj:0)
xGB_GC4                                            20 	(obj:0)
xDC_DG7                                            50 	(obj:0)
xDC_GF7                                            30 	(obj:0)
xDF_GF7                                            20 	(obj:0)
xCA_BE9                                            30 	(obj:0)
xCA_EA9                                            30 	(obj:0)
xDC_FG13                                           30 	(obj:0)
xDC_GC13                                           80 	(obj:0)
xGB_GC13                                           20 	(obj:0)
xGB_CB13                                           40 	(obj:0)
xCA_CB13                                           30 	(obj:0)
